Version identifier: 22.1.0.0 | 2022-03-09 | 1a383f8ce
CPXPARAM_Read_DataCheck                          1
CPXPARAM_TimeLimit                               600
Tried aggregator 4 times.
MIP Presolve eliminated 151316 rows and 12167 columns.
MIP Presolve modified 1540 coefficients.
Aggregator did 142128 substitutions.
Reduced MIP has 12950 rows, 144421 columns, and 302114 nonzeros.
Reduced MIP has 144377 binaries, 44 generals, 0 SOSs, and 0 indicators.
Presolve time = 2.10 sec. (2187.29 ticks)
Tried aggregator 1 time.
Detecting symmetries...
Reduced MIP has 12950 rows, 144421 columns, and 302114 nonzeros.
Reduced MIP has 144377 binaries, 44 generals, 0 SOSs, and 0 indicators.
Presolve time = 0.37 sec. (227.44 ticks)
Probing fixed 68 vars, tightened 0 bounds.
Probing time = 0.88 sec. (77.51 ticks)
Clique table members: 291730.
MIP emphasis: balance optimality and feasibility.
MIP search method: dynamic search.
Parallel mode: deterministic, using up to 8 threads.
Root relaxation solution time = 2.96 sec. (1186.09 ticks)

        Nodes                                         Cuts/
   Node  Left     Objective  IInf  Best Integer    Best Bound    ItCnt     Gap

      0     0       44.3978  9621                     44.3978       27         
      0     0       72.0000  1285                    Cuts: 39    25107         
      0     0       72.0000  1015                    Cuts: 95    48057         
      0     0       72.0000   915                ZeroHalf: 47    63370         
      0     0       72.0000   855                ZeroHalf: 60    81369         
      0     0       72.0000  1047                ZeroHalf: 56    99853         
      0     0       72.0000   865                ZeroHalf: 55   117641         
      0     0       72.0000  1261                ZeroHalf: 44   137131         

Zero-half cuts applied:  208
Lift and project cuts applied:  5
Gomory fractional cuts applied:  30

Root node processing (before b&c):
  Real time             =  600.04 sec. (248307.81 ticks)
Parallel b&c, 8 threads:
  Real time             =    0.00 sec. (0.00 ticks)
  Sync time (average)   =    0.00 sec.
  Wait time (average)   =    0.00 sec.
                          ------------
Total (root+branch&cut) =  600.04 sec. (248307.81 ticks)
